PROBLEM NAME: small_9_BoundedStronglyCorrelated_n14_m39_c5
KNAPSACK DATA TYPE:
DIMENSION: 14
NUMBER OF ITEMS: 39
CAPACITY OF KNAPSACK: 8817
MIN SPEED: 0.1
MAX SPEED: 1.0
RENTING RATIO: 1.0
EDGE_WEIGHT_TYPE: CEIL_2D
NODE_COORD_SECTION	(INDEX, X, Y): 
1	212	790
2	951	566
3	138	1
4	216	254
5	229	646
6	320	408
7	591	166
8	292	549
9	369	155
10	564	582
11	512	637
12	858	3
13	319	310
14	57	951
ITEMS SECTION	(INDEX, PROFIT, WEIGHT, ASSIGNED NODE NUMBER): 
1	918	818	2
2	393	293	2
3	335	235	2
4	635	535	3
5	851	751	3
6	1064	964	3
7	463	363	4
8	122	22	4
9	173	73	4
10	606	506	5
11	1001	901	5
12	899	799	5
13	717	617	6
14	812	712	6
15	1008	908	6
16	700	600	7
17	717	617	7
18	963	863	7
19	695	595	8
20	772	672	8
21	349	249	8
22	635	535	9
23	480	380	9
24	906	806	9
25	842	742	10
26	907	807	10
27	359	259	10
28	181	81	11
29	157	57	11
30	281	181	11
31	634	534	12
32	682	582	12
33	585	485	12
34	291	191	13
35	348	248	13
36	715	615	13
37	154	54	14
38	519	419	14
39	429	329	14
